1000 2272
1 2 3 4 5 6 7 8 9 10 11 12 13 14 15 16 17 18 19 20
0 21 22 23 24 25 26 27 28 29 30 31 32 33 34 35 36 37 38 39 40 41 42 43 44 45 46 47 48 49 50 51 52 53 54 55 56 57 58 59
0 11 60 61 62 63 64 65 66 67 68 69 70 71 72 73 74 75 76 77 78 79 80 81 82 83 84
0 85 86 87 88 89 90 91 92 93 94 95
0 12 96 97 98 99 100 101 102 103 104 105 106 107 108 109 110 111
0 112 113 114 115 116 117 118 119 120 121 122 123 124 125 126 127 128 129 130 131 132 133 134 135 136 137
0 138 139 140 141 142 143 144 145 146 147 148 149 150 151 152 153 154 155 156 157 158 159 160 161 162 163 164 165
0 28 138 145 166 167 168 169 170 171 172 173 174 175 176 177 178 179 180 181 182 183 184 185 186 187 188 189 190 191 192 193 194 195 196 197 198 199 200 201 202 203 204 205 206 207 208
0 209 210 211 212 213 214 215 216 217 218 219 220 221 222 223 224
0 225 226 227 228 229 230 231 232 233 234 235 236 237 238 239 240 241 242 243 244 245 246 247 248
0 249 250 251 252 253 254 255 256 257 258 259 260
0 2 17 261 262 263 264
0 4 84 98 106 107 110 265 266 267 268 269 270 271 272 273 274
0 48 220 275 276 277 278 279 280 281 282 283 284 285 286 287 288 289 290 291 292 293 294 295 296 297 298 299 300 301 302 303 304 305 306 307 308 309 310
0 311 312 313 314 315 316 317 318 319 320 321 322 323 324 325 326 327 328 329 330 331
0 332 333 334 335 336 337 338 339 340 341 342 343 344 345 346 347 348 349 350 351 352 353 354 355 356 357 358 359 360 361 362 363 364 365 366 367 368 369 370 371 372 373 374 375 376 377
0 20 57 378 379 380 381 382 383 384 385 386 387 388
0 11 262 263 389 390 391 392 393 394 395 396 397 398 399 400 401 402 403 404 405 406 407 408 409 410 411 412
0 413 414 415 416 417 418 419 420 421 422 423 424 425 426 427 428 429 430 431 432 433 434 435 436 437 438 439 440
0 231 239 340 441 442 443 444 445 446
0 16 447 448 449 450 451 452 453 454 455 456 457 458 459 460 461 462 463 464 465 466 467 468 469 470 471 472 473 474 475 476 477 478 479 480 481 482 483 484 485 486 487 488 489 490 491
1 492 493 494 495 496 497 498 499 500 501 502 503 504 505 506 507 508 509 510 511 512 513 514 515 516 517 518 519 520 521
1 25 522 523 524 525 526 527 528 529 530 531 532 533 534 535 536 537 538 539 540 541 542 543 544 545 546 547 548 549 550 551 552 553 554 555 556 557 558 559 560 561 562 563 564 565 566 567 568 569 570 571 572 573 574 575 576 577 578 579 580 581 582 583 584 585 586 587 588 589 590 591 592 593 594 595 596 597 598 599 600 601 602 603 604 605 606 607 608 609 610 611 612 613
1 614 615 616 617 618 619 620 621 622 623 624 625 626 627 628 629 630 631 632 633 634 635 636 637 638 639 640 641 642 643 644 645 646 647 648 649 650 651 652 653 654 655 656 657 658 659 660 661 662 663 664 665 666 667 668 669 670 671 672 673 674 675 676 677 678 679 680 681 682 683 684 685 686 687 688 689 690 691 692 693 694 695 696 697 698 699 700 701 702
1 57 382 703 704 705 706 707 708 709 710 711 712 713 714 715 716 717 718 719 720 721 722 723 724 725 726 727 728 729 730
1 22 522 523 526 530 539 540 541 542 543 544 547 548 549 552 554 561 562 563 566 568 569 570 571 572 573 574 576 579 583 585 586 589 596 597 598 600 601 602 603 604 608 611 613 731 732 733 734 735 736 737
1 738 739 740 741 742 743 744 745 746 747 748 749 750 751 752 753 754 755 756 757 758 759 760 761 762 763 764 765 766 767 768 769 770 771 772 773 774 775 776 777 778 779 780 781 782 783 784 785 786 787 788 789 790 791 792 793 794 795 796 797 798 799 800 801 802 803 804 805 806 807 808 809 810 811 812 813 814 815 816
1 817 818 819 820 821 822 823 824 825 826 827 828 829 830 831 832 833 834 835 836 837 838 839 840 841 842 843 844 845 846 847 848 849 850 851 852 853 854 855 856 857 858 859 860 861 862 863 864 865 866 867 868 869 870 871 872 873 874 875 876 877 878 879 880 881 882 883 884 885 886 887 888 889 890 891 892 893 894 895 896 897 898 899 900 901 902 903 904 905
1 7 148 906 907 908 909 910 911 912 913 914 915 916 917 918 919 920 921 922 923 924 925 926 927 928 929 930 931 932 933 934 935 936 937
1 383 384 518 938 939 940 941 942 943 944 945 946 947 948 949 950 951 952 953 954 955 956 957 958 959 960 961 962 963 964 965 966 967 968 969 970 971 972 973 974 975 976 977 978 979 980 981 982 983 984 985 986 987 988 989 990 991 992 993 994 995 996 997 998 999
1 49 603 745 988
1
1 44 494 844 868
1 492 493 499 796
1 507 728 939
1
1 427
1 59
1
1 198 499
1
1
1
1
1 32 838 973
1 933
1
1 952
1 13
1 30 382 492 745 844
1
1 923
1 388
1 716 955
1 382 920 969
1
1
1 16 24 382 710 711 714 717 722 963
1 729
1 37
2 64 66 76 79 81 83
2 62 63 66 72
2 61 63
2 61 62
2 60 65 66 76 79 80 81 82
2 64 79
2 60 61 64 79
2 84
2 220 432
2
2 75
2 492
2 61 74
2
2 72
2 70
2 60 64 79 81
2 78 357
2 77
2 60 64 65 66 76
2 64
2 60 64 76
2 64 133 394
2 60
2 12 67
3 88 102
3 145 280 298
3
3 85
3
3
3
3
3
3
3
4 127
4 110
4 12 107 268 269 270 271 272 274
4 254
4
4
4 85 127
4
4 110
4 107 216
4 12
4 12 98 105 109 111
4 110
4 107
4 12 97 104 108
4 107
5 115 132
5
5 136
5 112 124
5
5 129
5 324
5
5
5
5
5
5 115
5
5
5 96 102
5
5 117
5 495
5 134 135
5 112
5 82 394
5 131
5 131
5 114
5
6 7 362 929 931
6 933
6
6 918
6 143 157
6 142 157
6
6 7 86 148 156 214 226 669 921
6 235 326
6
6 28 145 152 164 913
6
6 155 165
6
6 148 915 929
6
6
6 150 165
6 145 333 357
6 142 143
6 362
6
6
6
6
6
6 148 226 669 913
6 150 155
7
7 226
7
7
7
7 926
7 198
7
7 506 926 931 933
7 439
7 298
7 198
7
7 512 907
7
7
7
7
7
7
7
7 766
7 910
7
7
7
7
7 439 715
7 935
7 233
7
7
7 39 172 177 357 437
7
7
7 277
7
7
7
7
7
7 935
7
8
8
8
8
8
8 145
8
8 105
8 219
8
8 217
8 13 68 307 362 514 871 913 914 926 933
8
8 926 933
8
8
9 231
9 145 164 167
9
9 246
9
9 926
9 19 225 915
9 910
9 195 242
9
9 146 658
9
9
9
9 19
9
9
9 233
9
9 910
9
9 228
9
9
10 254 257 258 259 632
10 251 253 255 260
10 250 255 260
10 254 255
10 250 255
10 99 249 252 256 257 258 259
10 250 251 252 253 260
10 254 258
10 249 254 258 259
10 249 254 256 257
10 249 254 257
10 250 251 255
11 263 395
11 17 263 409
11 17 261 262 395 402 403 409
11 395
12
12
12
12 98 271
12 98
12 98
12 98 268
12 98
12
12 98
13 280
13 296
13 201 279
13 279 282
13 277 278 282 293 935
13 86 275
13
13 278 279
13 445 907 913
13
13 926
13
13
13
13 305
13
13
13
13 279 669
13 935
13 926
13 276 301
13 933
13 86 176
13
13
13 296
13
13
13
13 289
13
13 220
13 925
13
13
14
14
14 327
14
14
14
14
14
14
14 321
14 320
14
14
14 118 407 477
14 379
14 146 907
14 313
14 331
14
14 347
14 328
15
15 156
15
15
15 918
15 346 356
15
15 376
15 19 356 926
15
15
15
15
15
15 337 348 356 359 365 371 373
15 330 358
15 346 356
15 361
15
15 682
15 354
15 926 931 933
15 352
15
15 337 340 346 348 365 371 373
15 77 156 198
15 347 373
15 346 371
15 373
15 349
15 138 158 220
15 371
15
15 346 356 372
15
15
15 882
15
15
15 346 356 359 363
15 365
15 346 356 358 360
15
15
15 339
15
16
16 325
16
16 383 890 946 948 989
16 24 49 54 57 383 386
16 29 381 382 384
16 29 383 989
16
16 382
16
16 52
17
17 392
17
17 390
17 409
17 82 133
17 261 263 264
17 398 399 411 412
17 398 399 405 411
17 396 397 399 406 407 411 412
17 396 397 398 405 411
17
17
17 263 403 409
17 263 402 409
17
17 397 399 411
17 398 412
17 324 398
17
17 262 263 393 402 403
17
17 396 397 398 399 405
17 396 398 406
18
18 927
18 684
18
18 419 420
18
18 417
18 417 439
18
18 426
18
18 427
18
18 422
18 36 424 439
18 892
18
18 926
18 527 549
18 68
18
18
18
18
18 198
18
18 175 193 420 427
18
19 444
19
19
19 441
19 283 913
19
20
20 487
20 450 456 457 462 467
20 449 456 457 460 462 463 466 467 468 469 474 478 487
20
20 465
20
20 457 459 460 466 470 474 478 479 480 487
20
20 449 450 457 463 474 478 482 487
20 449 450 454 456 460 462 466 469 470 474 477 478 480 482 485 487
20
20 454 466 474 478 480 482 487
20 450 454 457 462 469 474 478 480 487
20
20 449 450 457 460 477 479 482 484
20 450 456 480 482
20 474 478 487
20 452
20 450 454 457 459 474 480 481 482 487
20 449 450
20 450 469
20 450 457 460 468 474 478 487
20 454 457
20
20
20
20 450 454 456 457 459 460 464 466 469 478 479 482 487
20
20
20 324 457 462 482 485
20 450 454 456 457 459 460 464 469 474 479 480 482 487
20 454 462 474 478 482 487
20 454 457 459 460 463 466 478 482 487
20 466
20 456 457 459 462 463 466 474 477 478 479 480
20
20 462
20 457 477
20
20 448 450 454 456 457 459 460 464 466 469 474 478 479 480
20
20
20
20
21 33 49 71
21 33 750 985
21 32
21 130
21
21 603
21
21 33 39 500 984
21 499
21
21
21
21
21
21 174
21 34
21
21 862 863 985
21
21
21 179
21
21 220 998
21
21
21
21 29 991
21
21 614
21
22 25 523 526 559 562 571 586 597 602 611 734
22 25 522 534 539 543 559 568 571 586 613
22
22 526 558 559 571 586 593 600 613
22 25 522 525 531 538 539 542 545 547 551 555 558 559 560 562 567 569 571 572 577 593 597 602 605 611 613 734
22 431 549 563 564 565 566 586 608 610
22 568 571
22 584 610 834
22 25 559 562 586 597
22 526 547 555 559 560 571 586 593
22 574 593
22
22 523 545 582
22 561 596
22 561 563 573 574 596
22 544 548 549 561 563 564 565 566 570 573 574 579 584 585 586 596 610 731 732
22 526 562 586 597
22 25 523 526 542 545 551 559 562 568 569 571 586 587 597 598 602 613 733 734 737
22 25 543 584 586 610
22 25 554 561 563 580 585 602 607 731 737
22 25 526 539 547 563 586 596
22 25 523 540 544 546 548 549 561 563 564 565 566 570 573 574 579 583 584 585 586 596 602 610 731 732 734 737
22 25 537 543 561 563 566 570 573 574 583 584 585 596 598 602 610
22 526 534 539 547 559 562 586 602
22 543 549 570 579 584 585 586 602 610 734 737
22 25 526 531 542 545 559 561 562 571 572 586 593 601 602 606 737
22 25 537 543 561 563 574 584 596 598 602
22 25 431 527 537 543 546 557 561 562 563 565 566 574 579 584 585 596 598 602 607 610 839
22
22 526 539 559 562 571 572 602 737
22 25 563 602
22
22 25 541 580 585 602 607 610
22 526 531 559 560 562 577 602 605 737
22
22 549 750 789
22 525 526 559 562 586 737
22 522 523 525 526 530 531 539 545 547 551 555 558 560 562 569 577 586 602 613 733 737
22 526 531 555 559 577 593 602 605
22 25 535 536 537 541 543 544 547 548 549 563 573 574 583 584 585 586 596 598 599 602 610 612 734 737
22 25 522 526 530 538 539 545 547 549 551 555 558 559 569 571 572 577 586 597 605 606 613 733 735 737
22 25 527 536 537 541 542 543 544 548 549 552 561 564 574 583 584 585 586 596 598 599 602 610 731 734 737 887
22 527 537 543 563 565 566 598
22 527 537 543 549 564 566 586 598 608 737
22 25 527 537 543 544 549 564 565 584 586 598 608
22 526
22 25 523 528 539 571 586 598 737
22 25 526 539 559 562 571 597 602 737
22 25 537 543 544 546 573 579 585 586 602 610 732 737
22 25 522 523 525 526 528 531 539 547 551 562 568 569 586 597 598 602 604 606 610 613 733 734 735 737
22 25 526 547 551 562 586 602
22 25 536 537 543 544 561 570 583 585 586 596 602 734 737
22 25 532 536 537 543 544 548 549 561 563 583 584 585 586 596 598 602 607 610 737 887
22 582
22 25 602
22 526 555 559 560 562 586 597 602 605
22
22 25 537 543 546 549 570 584 585 586 602 610 737
22 541 554 586
22 584 586 610 737 834
22 534 575 834
22 25 543 544 561 563 573 574 585 586 596 598 602 610 731
22 529 537 540 543 544 546 548 549 561 563 566 574 579 581 585 586 602 610 834
22 25 537 541 543 544 546 549 554 561 563 570 573 574 579 583 584 586 587 596 602 610 731 732
22 25 522 523 525 527 530 531 537 538 539 540 542 543 545 546 547 558 559 561 562 563 565 566 568 570 571 572 573 574 577 579 580 581 583 584 585 590 593 596 597 598 600 602 604 605 606 610 612 613 732 734 735 736
22 539 585 591 737 905
22
22 25
22 586
22 587
22
22 525 526 531 532 547 560 586 602 606 613
22
22
22 25 535 536 537 542 543 544 548 549 561 563 573 574 583 585 586 598 599 602 610 734 737
22 25 522 526 530 538 539 562 569 571 577 586 602 613
22 25 539 544 548 549 561 563 564 565 566 568 571 574 583 586 596 602 608 737
22 561 563 596 602
22 25 525 586
22 25 547 602
22 25 522 526 539 541 543 544 545 546 547 548 549 551 552 554 555 559 560 561 563 569 570 571 572 573 574 576 577 579 583 584 585 586 593 596 597 598 599 601 608 610 611 731 732 737
22 25 30 497
22 25 571 586
22 526 555 560 562 577 586 737
22 547 562 571 586 593
22 541 549 554 574
22 25 527 565 566 598 602 839
22
22 527 529 537 540 543 544 546 549 554 561 563 570 571 574 579 581 583 584 585 586 596 602 731 732 734 737
22 25 522 526 602 613
22 561 586
22 25 523 525 526 539 559 562 571 586 593 597 611
23 520 998
23
23
23 640 647 662 667 674 682 687 692
23
23 691 695
23
23
23 630 644 662 692
23
23
23
23 689
23 648 661 677
23 663 667 677
23
23 622 702
23 640 641 645 647 662 663 667 677 687
23 249
23
23
23 644 893
23
23 648 657
23
23 677 695
23 617 631 645 647 656 660 661 662 663 666 667 677 687 692
23 631 660 662 663 667 677 687
23
23 938 939
23 622 635 646 662 667 687
23 631 640 647
23 644 666 689 702
23 617 631 640 645 656 660 663 667 682 687 893
23 627 637
23 660 661
23 657
23
23
23
23
23 660 661
23 640 647 663 678 683 691
23 637 650 680 696
23 235
23
23 640 641 647 649 655 662 689 701
23 627 640 649 655 683
23 617 622 631 640 641 644 660 666 667 677 687 692 695
23 628 631 640 641 647 656 667 679 687 701 893
23
23
23 640 646 662
23 617 628 631 640 641 644 647 662 663 677 687 692
23
23 145 164 293
23 986
23
23
23
23 617
23
23 946
23 627 628 631 639 640 641 662 667 687
23 656 701 702
23 663
23 657
23
23 351 617 647 692
23 656 661
23 415
23
23
23 617 631 640 641 644 647 662 663 667 677 692
23
23 626 646 660
23
23 619 656
23 617 622 640 662 667 682 687
23
23
23 619 639 662
23 657
23
23
23
23
23 660 663 678 702
23 630 646 678 701
24 704 705 708 709 712 714 716 719 720 723 727
24 703 705 708 709 712 716 719 720 723 727
24 703 704 708 709 716 727
24
24
24 703 704 705 709 712 714 716 719 720 723 727
24 703 704 705 708 714 716 719 720 723 725 727 730 862
24 57
24 57
24 703 704 708 716 727
24
24 57 703 708 709 716 718 727
24 193
24 53 703 704 705 708 709 712 714 719 720 727 983
24 57 722 836 877 976
24 714
24 703 704 708 709 716 727 939
24 703 704 708 709 716 727
24 724
24 57 717 832
24 703 704 708 709 727
24 721
24 709
24
24 703 704 705 708 709 712 714 716 719 720 723 730
24 34
24 58
24 709 727
25 537 541 543 563 583 585 602 610 737
25 537 543 570 585 586 602 610 734 737
25 539 559 562 571 737
25 522 526 539 543 546 561 563 571 573 586 596 610 732
25 562 571 586
25 586 737
25 539 541 543 546 547 551 555 558 559 561 562 563 565 568 569 570 571 573 574 579 581 587 596 598 602 605 610 731 732 733 736
26
26 741 747 752 756 811
26 757
26 739 757 778 796
26
26
26 813
26 30 49 826
26
26 739 755 811
26
26
26 493 557 789 806
26 752 755 756 782 810 813
26 739 751 755 756 766 810
26
26 755 756
26 747 751 752 754 756 761 810 813 816
26 739 751 752 754 755 810 814
26 740 741 763 796 811
26 786
26
26
26 755 766
26
26 757
26
26
26 187 752 761 778
26
26
26 813
26 794
26
26 782 785 788 800
26
26
26 811
26 806
26
26 741 766 796 811
26
26
26
26 751 772 788 799 800 808 816
26
26
26 772 788 800 808 813 816
26 758
26
26 772 782 785 800 808 813 816
26 557 750
26
26
26
26
26 770
26
26 33 741 757 778
26
26
26 782
26 772 782 785 788 808
26
26
26
26 808
26
26 750 776
26
26 782 785 788 800 804 813 816
26
26 751 752 755 756 813 814 816
26 739 747 757 775 778
26
26 744 751 755 769 785 788 808 810 816 827
26 756 810
26
26 755 782 785 788 808 810 813
27
27
27
27
27
27
27 859
27
27
27 745
27 813
27 888
27
27
27 835 877 885 947 989 996
27 722 889
27
27 529 581 582 584
27 831 890
27 717 846 848 885
27
27 44 973
27 549 608
27 885
27
27
27 878 944
27 32 49 880
27
27 836 853
27
27 836
27
27 877 878
27
27
27 846 885
27 944
27 876
27
27
27
27 823 878 895 901
27
27
27 509 709 863 870
27 509 862
27
27
27
27
27 32 888
27
27 862 878 879
27 220 878 888
27 982
27
27
27 962
27 855
27 717 831 850
27 843 850 859 870 871 886 888 895 901
27 870
27 844 984
27
27 368
27
27
27 831 836 840 853
27 878 888
27 563 574
27 828 868 871 878 886
27 832 992
27 381 835
27
27 428
27 635 647 663
27 905
27 859 878
27
27
27
27
27
27 859 878
27
27
27
27 587 894
28
28 179 283 326
28
28
28 188 232 244 925
28
28
28 148 164 220 283 445
28 220
28 152 231
28 930
28
28 141 336
28
28 54
28 145
28
28 51
28
28 308 910
28 171 174 220 222 230 285 295 340 353 430
28 414
28
28 138 152
28 916
28 138 174 353
28
28 45 139 174 220 222 297 353
28
28 194 207 279 294
28
28
29 643
29 34 643 719 966 971 972 997 999
29 954
29
29
29 944 972 981
29 843 854 943 950 966 975 999
29
29 381 676
29 831 962
29 381
29
29 944 958 974 983
29
29 47
29
29 940 966
29 53
29 994 996
29 962
29 950
29
29 998
29 968 974 979 988
29 875 947 957
29 57
29
29
29 939 944 954 972 977 997 999
29 980
29 961 974 990
29 54
29
29 939
29 939 943 966 977 981 999
29 44 838
29 950 961 968 983 990
29 944
29 717 978
29 966 972 999
29 976
29 961
29 967
29 943 972
29 872
29 716 950 974
29 499 880
29 493 509
29 670
29
29 30 961
29 381 384 831
29 968 974
29 518
29 889
29
29 956 996
29
29 831 956 994
29 939 966
29 514 614 960
29 939 944 966 972 977
